Route #1: 37 20 43 42 30 22 52 
Route #2: 5 13 33 44 3 10 21 16 
Route #3: 27 41 19 38 34 17 18 56 
Route #4: 24 49 46 23 54 29 35 40 4 
Route #5: 50 14 7 47 32 39 2 55 1 48 
Route #6: 26 53 8 28 25 12 9 36 
Route #7: 51 6 31 11 15 45 
cost 1294.25